9103
2964
4251
7758
4088
6242
1509
777
3877
5327
7921
4083
9082
5828
1125
5735
9004
5808
5652
8003
7199
2084
6832
7169
3987
2807
5259
3023
8268
7406
1580
6767
8149
6168
6848
2674
9998
9098
747
1093
6553
9478
4651
2750
7877
6652
5945
2041
7031
5209
9930
